data;


param d:= 100;
param r:=5;
param p:=0.720000;
param M:=1000;
param U:=
         1         1       -1.097387e+00
         2         1       -2.150561e+00
         3         1        4.006642e-01
         4         1       -1.267332e+00
         5         1        9.797595e-01
         6         1        2.735965e-01
         7         1       -3.950878e-01
         8         1       -1.289592e+00
         9         1        1.384747e-01
        10         1       -1.397813e+00
        11         1        1.804948e-01
        12         1       -1.337777e-01
        13         1        2.524991e+00
        14         1       -8.950841e-01
        15         1        1.536561e+00
        16         1       -4.354721e-01
        17         1       -7.114803e-02
        18         1        2.662244e-01
        19         1        2.584433e-01
        20         1        8.940598e-02
        21         1        1.076221e+00
        22         1       -1.544033e-01
        23         1        5.655767e-01
        24         1        2.500590e-01
        25         1       -2.653662e-01
        26         1        5.770274e-01
        27         1       -6.451317e-01
        28         1        1.928542e+00
        29         1       -5.360861e-01
        30         1        2.124866e+00
        31         1        7.368307e-01
        32         1        4.493393e-01
        33         1       -2.558456e-01
        34         1        9.504531e-02
        35         1       -8.262608e-01
        36         1        5.741435e-01
        37         1        1.361369e+00
        38         1        2.027070e+00
        39         1        3.067363e-01
        40         1       -5.296644e-01
        41         1        4.078791e-01
        42         1       -1.003136e+00
        43         1        4.913864e-02
        44         1        1.620152e-01
        45         1        1.213699e+00
        46         1        3.342515e-03
        47         1        8.097692e-01
        48         1       -1.763980e+00
        49         1        1.260438e+00
        50         1       -5.928063e-01
        51         1        2.178949e+00
        52         1       -1.803755e-01
        53         1       -8.713629e-01
        54         1       -2.444036e+00
        55         1        8.681059e-02
        56         1        2.377468e-01
        57         1       -1.285445e+00
        58         1       -6.170367e-01
        59         1       -3.227943e-01
        60         1        6.202865e-01
        61         1        1.187088e+00
        62         1       -1.232336e+00
        63         1        1.050366e+00
        64         1       -1.315065e+00
        65         1        3.881484e-01
        66         1        1.032432e+00
        67         1        7.768796e-01
        68         1       -2.924034e-01
        69         1        2.416305e-01
        70         1       -1.153299e+00
        71         1       -9.350053e-02
        72         1        3.164071e-01
        73         1        8.473572e-01
        74         1       -8.689719e-02
        75         1       -5.791326e-02
        76         1       -9.775902e-01
        77         1        1.193469e+00
        78         1       -2.731747e-01
        79         1       -1.341460e+00
        80         1       -4.110051e-02
        81         1        8.438795e-01
        82         1       -9.001216e-01
        83         1       -4.818323e-01
        84         1       -4.773850e-01
        85         1        1.663923e-01
        86         1       -4.841096e-01
        87         1        4.813849e-01
        88         1        9.693909e-02
        89         1        4.677127e-01
        90         1        2.534286e-01
        91         1        2.536064e-01
        92         1       -1.287754e-01
        93         1       -1.717324e+00
        94         1        1.596857e+00
        95         1       -1.391146e-01
        96         1       -6.485314e-01
        97         1       -8.644463e-01
        98         1       -1.060531e+00
        99         1        7.406507e-01
       100         1       -4.695543e-01
         1         2       -1.719941e+00
         2         2       -1.476887e+00
         3         2        4.191025e-01
         4         2       -5.258595e-01
         5         2        5.015659e-01
         6         2        5.389116e-01
         7         2        9.175278e-01
         8         2       -7.150594e-01
         9         2        1.184767e+00
        10         2       -9.306713e-01
        11         2       -1.349182e+00
        12         2        1.184800e+00
        13         2       -9.089650e-01
        14         2        7.589169e-01
        15         2       -1.504772e+00
        16         2        4.135778e-01
        17         2       -1.523222e+00
        18         2       -9.495334e-02
        19         2       -8.964013e-01
        20         2       -1.171700e+00
        21         2        5.827137e-01
        22         2       -7.608895e-01
        23         2        4.782741e-01
        24         2        6.481429e-01
        25         2        5.337897e-01
        26         2        3.924045e-01
        27         2        6.273643e-01
        28         2       -2.027984e+00
        29         2        2.038892e-01
        30         2        1.787615e+00
        31         2       -1.239713e+00
        32         2       -1.528408e+00
        33         2       -6.807395e-01
        34         2        1.168837e+00
        35         2       -1.610575e+00
        36         2        5.615817e-01
        37         2       -4.389668e-01
        38         2        5.366517e-01
        39         2        1.222830e-01
        40         2        5.080885e-01
        41         2        5.682104e-01
        42         2       -1.759490e+00
        43         2        8.156227e-02
        44         2       -3.537585e-01
        45         2       -1.336918e+00
        46         2        3.698946e-01
        47         2        7.411935e-01
        48         2       -3.798093e-01
        49         2       -3.751817e-01
        50         2        1.126489e+00
        51         2        5.670012e-01
        52         2        2.788293e-02
        53         2       -3.840655e-01
        54         2       -1.033668e+00
        55         2        4.344874e-01
        56         2        1.590814e-02
        57         2       -1.697630e-02
        58         2        3.968649e-01
        59         2       -1.248537e+00
        60         2        2.150205e+00
        61         2       -2.419692e+00
        62         2       -1.703934e-01
        63         2        7.286788e-03
        64         2        1.992107e-01
        65         2       -7.456467e-01
        66         2        4.788672e-01
        67         2        1.865073e+00
        68         2        1.082429e+00
        69         2       -8.481742e-01
        70         2        9.659017e-01
        71         2        1.238802e-01
        72         2        2.271691e+00
        73         2       -2.171963e-01
        74         2        5.052500e-01
        75         2        1.652611e-01
        76         2       -1.233374e+00
        77         2       -9.275083e-01
        78         2       -1.186901e+00
        79         2       -6.863944e-01
        80         2       -4.382233e-01
        81         2        1.031071e+00
        82         2        7.490253e-01
        83         2        1.669448e+00
        84         2        1.236096e+00
        85         2        4.138188e-01
        86         2        9.853647e-02
        87         2        5.297128e-02
        88         2        1.753231e+00
        89         2        2.515232e+00
        90         2        6.204172e-01
        91         2       -2.449716e+00
        92         2        8.743250e-01
        93         2        3.462172e-01
        94         2        3.824058e-01
        95         2       -6.327427e-01
        96         2       -6.131521e-01
        97         2        1.228002e+00
        98         2        5.532475e-01
        99         2       -3.011359e-02
       100         2        3.286285e-01
         1         3        1.446740e+00
         2         3        1.020397e+00
         3         3        3.237308e-01
         4         3        6.967023e-01
         5         3       -8.333441e-01
         6         3        2.765684e-02
         7         3        1.570023e-01
         8         3       -3.507373e-01
         9         3       -2.723490e+00
        10         3        4.271490e-01
        11         3       -7.071065e-01
        12         3        2.152375e-01
        13         3       -7.252234e-02
        14         3        9.987762e-03
        15         3        7.433504e-01
        16         3       -1.749863e+00
        17         3        4.704356e-01
        18         3        1.082837e+00
        19         3        8.661750e-01
        20         3        5.667883e-01
        21         3       -1.075416e+00
        22         3        8.186450e-01
        23         3       -3.183938e-01
        24         3       -2.556623e-01
        25         3       -1.794896e-01
        26         3        2.133103e-01
        27         3        1.009329e+00
        28         3        1.075972e-01
        29         3       -9.846190e-01
        30         3       -2.389452e-01
        31         3        1.942754e+00
        32         3       -1.264821e+00
        33         3        1.825891e-02
        34         3        7.165301e-01
        35         3       -5.457020e-01
        36         3        4.259798e-01
        37         3       -7.051858e-01
        38         3        7.578986e-01
        39         3        3.191050e-01
        40         3       -2.374287e-01
        41         3        1.073218e+00
        42         3        6.392921e-01
        43         3        1.033201e+00
        44         3       -8.474789e-01
        45         3       -2.263211e+00
        46         3       -2.713478e-01
        47         3       -9.107030e-01
        48         3        7.768550e-02
        49         3       -2.479806e-01
        50         3        1.279983e+00
        51         3        1.730709e-01
        52         3        1.836131e+00
        53         3        1.270936e-01
        54         3       -2.230639e+00
        55         3       -1.285122e+00
        56         3        2.506557e-01
        57         3        9.277492e-02
        58         3        1.788569e-02
        59         3        1.289869e+00
        60         3        1.241931e-01
        61         3       -8.272378e-01
        62         3        9.329449e-02
        63         3       -2.355868e-01
        64         3        1.459385e-01
        65         3        6.297323e-01
        66         3        8.344453e-01
        67         3        1.421061e+00
        68         3       -1.379013e+00
        69         3        9.371267e-01
        70         3        1.194803e+00
        71         3       -1.766770e+00
        72         3       -2.130131e-01
        73         3        2.385415e-01
        74         3        5.291663e-01
        75         3        3.105574e-01
        76         3       -8.204755e-01
        77         3       -5.768937e-01
        78         3       -4.958253e-01
        79         3       -1.123670e+00
        80         3        8.674832e-01
        81         3        5.432122e-01
        82         3        1.162180e+00
        83         3        5.060407e-01
        84         3        1.551970e-01
        85         3       -1.813218e-01
        86         3       -3.835891e-01
        87         3       -6.929854e-01
        88         3       -1.053300e+00
        89         3        9.071183e-01
        90         3       -6.223682e-01
        91         3        1.772702e+00
        92         3       -1.154196e+00
        93         3        2.272306e-02
        94         3       -3.233721e-01
        95         3       -6.576818e-01
        96         3       -1.287265e+00
        97         3       -1.022779e+00
        98         3        6.131704e-01
        99         3        1.185817e+00
       100         3       -9.611298e-01
         1         4       -5.914423e-01
         2         4       -2.316634e-01
         3         4        1.950749e+00
         4         4        6.552004e-01
         5         4        7.221768e-01
         6         4       -2.011240e+00
         7         4        3.306066e-01
         8         4        1.017662e+00
         9         4       -2.926103e-02
        10         4       -7.933199e-01
        11         4        7.753476e-01
        12         4       -9.318192e-01
        13         4       -3.373523e-01
        14         4       -4.401351e-01
        15         4        1.398590e+00
        16         4        5.585274e-01
        17         4       -4.338567e-01
        18         4        7.401194e-02
        19         4        7.593462e-01
        20         4        4.756931e-01
        21         4        2.001931e-02
        22         4        8.772719e-02
        23         4        6.905808e-01
        24         4        6.823721e-01
        25         4        6.825611e-01
        26         4       -1.755665e+00
        27         4       -1.138586e+00
        28         4       -3.582874e-01
        29         4       -2.166467e+00
        30         4        1.572361e+00
        31         4        1.581650e+00
        32         4       -2.074763e-01
        33         4       -8.423091e-02
        34         4       -8.672752e-01
        35         4        2.937948e-01
        36         4        2.496764e-01
        37         4        3.371268e-01
        38         4        2.783199e-01
        39         4       -1.207752e+00
        40         4        1.962089e+00
        41         4       -1.395691e+00
        42         4       -1.702956e+00
        43         4        4.832961e-01
        44         4       -7.392269e-01
        45         4       -2.529765e+00
        46         4        8.407594e-01
        47         4        3.133310e-01
        48         4       -6.014914e-01
        49         4        4.294862e-02
        50         4       -1.700097e+00
        51         4       -1.764441e-01
        52         4        1.088186e+00
        53         4       -7.218783e-01
        54         4        1.119589e+00
        55         4        5.936377e-01
        56         4       -2.271921e+00
        57         4       -1.251717e+00
        58         4       -8.704463e-01
        59         4        1.431614e+00
        60         4       -2.260212e+00
        61         4        1.172262e+00
        62         4       -1.765376e+00
        63         4       -2.088700e+00
        64         4        5.837662e-01
        65         4        1.126512e-01
        66         4       -1.746337e+00
        67         4        3.231479e-01
        68         4       -6.606836e-01
        69         4       -8.787162e-02
        70         4        5.770131e-01
        71         4       -1.023250e+00
        72         4       -1.926843e-01
        73         4        4.694569e-01
        74         4        7.644178e-01
        75         4       -1.160444e+00
        76         4        2.305137e+00
        77         4       -6.107795e-01
        78         4       -9.560567e-01
        79         4        9.571110e-01
        80         4       -1.413176e-01
        81         4        6.365200e-01
        82         4        1.085867e-01
        83         4       -2.379408e-01
        84         4        6.670356e-02
        85         4        8.874445e-01
        86         4       -8.767708e-01
        87         4       -9.079115e-02
        88         4       -2.183705e-01
        89         4       -1.737088e+00
        90         4       -2.880879e-01
        91         4        5.017136e-01
        92         4       -8.787805e-02
        93         4       -3.056133e-01
        94         4       -6.275668e-01
        95         4        7.446719e-01
        96         4       -1.508980e+00
        97         4       -6.060011e-01
        98         4        1.802273e+00
        99         4       -1.008584e+00
       100         4       -6.647118e-01
         1         5       -8.834273e-01
         2         5       -9.136707e-01
         3         5        5.780781e-01
         4         5       -7.278003e-01
         5         5        3.878507e-01
         6         5       -5.902711e-01
         7         5       -2.380630e+00
         8         5       -4.423726e-01
         9         5        1.762418e+00
        10         5        8.604768e-01
        11         5        4.296068e-01
        12         5        8.966887e-01
        13         5       -7.870236e-01
        14         5       -1.553857e-01
        15         5        3.190466e-01
        16         5       -4.546762e-01
        17         5        3.126000e-01
        18         5       -1.341262e+00
        19         5        2.093615e+00
        20         5       -1.340198e+00
        21         5       -7.925479e-01
        22         5       -4.816070e-01
        23         5       -2.595142e+00
        24         5        1.153120e+00
        25         5        9.291513e-01
        26         5       -1.018871e-01
        27         5        1.906206e-01
        28         5        2.072989e+00
        29         5        1.223397e+00
        30         5        1.618355e+00
        31         5        1.260013e+00
        32         5        3.133158e-01
        33         5       -4.667224e-01
        34         5       -2.089783e+00
        35         5        1.611227e+00
        36         5       -6.214169e-01
        37         5        7.117165e-01
        38         5       -7.329248e-01
        39         5        1.429167e+00
        40         5        5.302056e-01
        41         5       -9.415257e-01
        42         5       -1.428038e+00
        43         5        1.148235e+00
        44         5        1.315809e+00
        45         5        9.748858e-01
        46         5        2.340796e-01
        47         5        3.204897e-01
        48         5        1.141913e+00
        49         5       -1.259719e+00
        50         5        1.154518e-01
        51         5       -8.996773e-01
        52         5       -8.664733e-01
        53         5        9.005220e-01
        54         5        1.320441e-01
        55         5       -6.731456e-01
        56         5       -1.332233e-01
        57         5        6.242826e-01
        58         5       -1.225405e+00
        59         5        5.669477e-01
        60         5        1.146208e+00
        61         5       -9.696132e-01
        62         5       -7.527190e-01
        63         5        1.245619e-01
        64         5       -7.838895e-01
        65         5        1.970734e+00
        66         5       -9.707717e-01
        67         5       -6.647535e-01
        68         5        2.659648e-01
        69         5        7.227644e-01
        70         5        9.419243e-02
        71         5        1.233394e+00
        72         5       -1.629180e-01
        73         5        2.505499e+00
        74         5       -1.445980e+00
        75         5        3.415493e-01
        76         5        6.056172e-01
        77         5        2.391403e-01
        78         5        1.017006e-01
        79         5        1.054963e+00
        80         5       -8.988429e-01
        81         5       -1.535086e+00
        82         5        7.256902e-01
        83         5       -6.271869e-01
        84         5       -1.254864e+00
        85         5       -1.083265e+00
        86         5       -1.204615e-01
        87         5       -2.238443e-01
        88         5       -1.578015e+00
        89         5        3.225558e-01
        90         5        2.496405e-01
        91         5       -1.331223e-01
        92         5       -4.356646e-01
        93         5       -1.342661e-01
        94         5       -1.061675e-01
        95         5        8.505243e-01
        96         5        8.266534e-01
        97         5       -2.427517e-02
        98         5        1.000092e+00
        99         5       -1.748136e+00
       100         5        1.075135e+00
;

param theta:=
    1        2.864723e-01
    2        2.042600e+00
    3        2.382311e-01
    4        3.540278e-02
    5        8.259199e-01
;
param X_true:=
    1       -4.233444e+00
    2       -4.152496e+00
    3        1.594469e+00
    4       -1.849109e+00
    5        1.452545e+00
    6        6.270275e-01
    7       -1.561419e-01
    8       -2.242906e+00
    9        3.265435e+00
   10       -1.517065e+00
   11       -2.490316e+00
   12        3.140630e+00
   13       -1.812551e+00
   14        1.152208e+00
   15       -2.143355e+00
   16       -5.260095e-02
   17       -2.776820e+00
   18       -9.648748e-01
   19        2.054384e-01
   20       -3.322731e+00
   21        5.884887e-01
   22       -1.798062e+00
   23       -1.055837e+00
   24        2.311168e+00
   25        1.763108e+00
   26        8.713391e-01
   27        1.454224e+00
   28       -1.864816e+00
   29        9.620522e-01
   30        5.595471e+00
   31       -7.616672e-01
   32       -3.043094e+00
   33       -1.847879e+00
   34        8.286973e-01
   35       -2.315321e+00
   36        9.086435e-01
   37       -7.488036e-02
   38        1.261935e+00
   39        1.551287e+00
   40        1.336895e+00
   41        7.061107e-01
   42       -4.968740e+00
   43        1.392277e+00
   44        1.825120e-01
   45       -2.206648e+00
   46        9.149570e-01
   47        1.804772e+00
   48       -3.407886e-01
   49       -1.503249e+00
   50        2.471241e+00
   51        1.074288e+00
   52       -2.344080e-01
   53       -2.856333e-01
   54       -3.194232e+00
   55        7.124909e-02
   56       -3.014826e-02
   57        9.047483e-02
   58       -4.047695e-01
   59       -1.816510e+00
   60        5.465949e+00
   61       -5.558791e+00
   62       -1.363035e+00
   63        2.885929e-01
   64       -5.618178e-01
   65        3.698142e-01
   66        6.090835e-01
   67        3.833102e+00
   68        1.994956e+00
   69       -8.461732e-01
   70        2.025425e+00
   71        7.878114e-01
   72        4.538674e+00
   73        1.941889e+00
   74       -3.400747e-02
   75        6.359658e-01
   76       -2.413005e+00
   77       -1.514180e+00
   78       -2.570593e+00
   79       -1.148815e+00
   80       -1.447603e+00
   81        1.231900e+00
   82        2.152173e+00
   83        2.866109e+00
   84        1.391010e+00
   85       -1.353557e-02
   86       -1.593278e-01
   87       -1.070798e-01
   88        2.046947e+00
   89        5.692612e+00
   90        1.387581e+00
   91       -4.601013e+00
   92        1.111105e+00
   93        9.891848e-02
   94        1.051617e+00
   95       -7.601448e-01
   96       -1.115550e+00
   97        1.975517e+00
   98        1.862128e+00
   99       -1.046363e+00
  100        1.172214e+00
;
param X:=
    1        7.990746e-01
    2        7.598683e-01
    3        1.594469e+00
    4       -1.516970e+00
    5       -1.817830e-02
    6       -5.183807e-01
    7       -4.558768e-01
    8        4.600902e-01
    9        7.696781e-01
   10       -1.005425e+00
   11        2.547400e-01
   12        3.140630e+00
   13        7.567648e-01
   14        6.694580e-02
   15       -1.835092e-01
   16       -8.740519e-02
   17       -2.776820e+00
   18        4.337671e-01
   19        3.939510e-01
   20        2.316472e+00
   21       -5.668011e-01
   22       -1.798062e+00
   23       -8.169560e-01
   24        2.311168e+00
   25        1.763108e+00
   26        1.052724e-01
   27        2.926605e+00
   28       -2.872167e-02
   29        2.296870e+00
   30       -1.459772e+00
   31       -7.616672e-01
   32        5.748104e-01
   33       -2.859923e-01
   34        8.286973e-01
   35       -9.404321e-01
   36        9.086435e-01
   37        6.856013e-02
   38        5.436166e-01
   39       -2.613551e-01
   40        1.336895e+00
   41        6.965652e-01
   42       -4.968740e+00
   43       -1.721161e+00
   44        1.825120e-01
   45        1.376130e-01
   46        9.149570e-01
   47       -3.358242e-02
   48       -2.130475e+00
   49       -1.228141e+00
   50        5.023099e-01
   51        1.074288e+00
   52       -2.344080e-01
   53       -2.856333e-01
   54       -3.194232e+00
   55       -1.601097e+00
   56        6.506825e-01
   57        9.047483e-02
   58       -2.336864e-01
   59        3.223909e-01
   60       -5.283873e-01
   61        1.793659e+00
   62        1.791204e-01
   63       -8.232033e-01
   64        1.603926e+00
   65       -6.383012e-01
   66        6.090835e-01
   67       -4.834592e-01
   68        1.994956e+00
   69       -7.203172e-01
   70       -1.308416e+00
   71       -1.174358e-01
   72        4.538674e+00
   73       -6.255823e-01
   74       -3.400747e-02
   75       -1.842681e-01
   76       -2.369887e-01
   77       -3.100565e-01
   78       -2.305398e+00
   79        7.771530e-01
   80       -6.511266e-01
   81       -3.918830e-01
   82        2.253476e+00
   83       -3.028026e-01
   84        5.197942e-01
   85       -1.946213e+00
   86       -1.593278e-01
   87       -1.070798e-01
   88        5.817710e-01
   89       -5.658329e-02
   90       -3.200252e-01
   91       -5.404632e-01
   92       -9.849919e-01
   93        2.841377e-02
   94        1.051617e+00
   95       -9.697002e-01
   96       -1.115550e+00
   97        3.349047e-01
   98        1.862128e+00
   99       -1.046363e+00
  100        7.252421e-01
;
param outliervec:=
    1    1
    2    1
    3    0
    4    1
    5    1
    6    1
    7    1
    8    1
    9    1
   10    1
   11    1
   12    0
   13    1
   14    1
   15    1
   16    1
   17    0
   18    1
   19    1
   20    1
   21    1
   22    0
   23    1
   24    0
   25    0
   26    1
   27    1
   28    1
   29    1
   30    1
   31    0
   32    1
   33    1
   34    0
   35    1
   36    0
   37    1
   38    1
   39    1
   40    0
   41    1
   42    0
   43    1
   44    0
   45    1
   46    0
   47    1
   48    1
   49    1
   50    1
   51    0
   52    0
   53    0
   54    0
   55    1
   56    1
   57    0
   58    1
   59    1
   60    1
   61    1
   62    1
   63    1
   64    1
   65    1
   66    0
   67    1
   68    0
   69    1
   70    1
   71    1
   72    0
   73    1
   74    0
   75    1
   76    1
   77    1
   78    1
   79    1
   80    1
   81    1
   82    1
   83    1
   84    1
   85    1
   86    0
   87    0
   88    1
   89    1
   90    1
   91    1
   92    1
   93    1
   94    0
   95    1
   96    0
   97    1
   98    0
   99    0
  100    1
;